NAME 
ROWS
 N  OBJ
 G  c1      
 G  c2      
 G  c3      
 G  c4      
 G  c5      
 G  c6      
 E  c7      
 E  c8      
 E  c9      
 E  c10     
 E  c11     
 E  c12     
 E  c13     
 E  c14     
 E  c15     
 E  c16     
 E  c17     
 E  c18     
 E  c19     
 E  c20     
 E  c21     
 E  c22     
 E  c23     
 E  c24     
 E  c25     
 E  c26     
 E  c27     
 E  c28     
 E  c29     
 E  c30     
 E  c31     
COLUMNS
    MARKER    'MARKER'                 'INTORG'
    x_1       OBJ       40
    x_1       c1        -1
    x_1       c2        188
    x_2       OBJ       60
    x_2       c1        -1
    x_2       c3        188
    x_3       OBJ       47
    x_3       c1        -1
    x_3       c4        188
    x_4       OBJ       68
    x_4       c1        -1
    x_4       c5        188
    x_5       OBJ       60
    x_5       c1        -1
    x_5       c6        188
    y_1_1     c7        1
    y_1_2     OBJ       -22
    y_1_2     c3        -22
    y_1_2     c7        1
    y_1_3     OBJ       -18
    y_1_3     c4        -18
    y_1_3     c7        1
    y_1_4     OBJ       -14
    y_1_4     c5        -14
    y_1_4     c7        1
    y_1_5     OBJ       -22
    y_1_5     c6        -22
    y_1_5     c7        1
    y_2_1     OBJ       -15
    y_2_1     c2        -15
    y_2_1     c8        1
    y_2_2     OBJ       -11
    y_2_2     c3        -11
    y_2_2     c8        1
    y_2_3     OBJ       -20
    y_2_3     c4        -20
    y_2_3     c8        1
    y_2_4     OBJ       -8
    y_2_4     c5        -8
    y_2_4     c8        1
    y_2_5     OBJ       -14
    y_2_5     c6        -14
    y_2_5     c8        1
    y_3_1     OBJ       -4
    y_3_1     c2        -4
    y_3_1     c9        1
    y_3_2     OBJ       -22
    y_3_2     c3        -22
    y_3_2     c9        1
    y_3_3     OBJ       -10
    y_3_3     c4        -10
    y_3_3     c9        1
    y_3_4     c9        1
    y_3_5     OBJ       -25
    y_3_5     c6        -25
    y_3_5     c9        1
    y_4_1     OBJ       -14
    y_4_1     c2        -14
    y_4_1     c10       1
    y_4_2     OBJ       -23
    y_4_2     c3        -23
    y_4_2     c10       1
    y_4_3     OBJ       -23
    y_4_3     c4        -23
    y_4_3     c10       1
    y_4_4     OBJ       -5
    y_4_4     c5        -5
    y_4_4     c10       1
    y_4_5     OBJ       -22
    y_4_5     c6        -22
    y_4_5     c10       1
    y_5_1     OBJ       -8
    y_5_1     c2        -8
    y_5_1     c11       1
    y_5_2     OBJ       -23
    y_5_2     c3        -23
    y_5_2     c11       1
    y_5_3     OBJ       -14
    y_5_3     c4        -14
    y_5_3     c11       1
    y_5_4     OBJ       -5
    y_5_4     c5        -5
    y_5_4     c11       1
    y_5_5     OBJ       -11
    y_5_5     c6        -11
    y_5_5     c11       1
    y_6_1     OBJ       -18
    y_6_1     c2        -18
    y_6_1     c12       1
    y_6_2     OBJ       -5
    y_6_2     c3        -5
    y_6_2     c12       1
    y_6_3     OBJ       -2
    y_6_3     c4        -2
    y_6_3     c12       1
    y_6_4     OBJ       -23
    y_6_4     c5        -23
    y_6_4     c12       1
    y_6_5     OBJ       -6
    y_6_5     c6        -6
    y_6_5     c12       1
    y_7_1     OBJ       -6
    y_7_1     c2        -6
    y_7_1     c13       1
    y_7_2     OBJ       -8
    y_7_2     c3        -8
    y_7_2     c13       1
    y_7_3     OBJ       -22
    y_7_3     c4        -22
    y_7_3     c13       1
    y_7_4     OBJ       -3
    y_7_4     c5        -3
    y_7_4     c13       1
    y_7_5     OBJ       -15
    y_7_5     c6        -15
    y_7_5     c13       1
    y_8_1     OBJ       -14
    y_8_1     c2        -14
    y_8_1     c14       1
    y_8_2     OBJ       -21
    y_8_2     c3        -21
    y_8_2     c14       1
    y_8_3     OBJ       -6
    y_8_3     c4        -6
    y_8_3     c14       1
    y_8_4     OBJ       -16
    y_8_4     c5        -16
    y_8_4     c14       1
    y_8_5     OBJ       -14
    y_8_5     c6        -14
    y_8_5     c14       1
    y_9_1     OBJ       -21
    y_9_1     c2        -21
    y_9_1     c15       1
    y_9_2     OBJ       -6
    y_9_2     c3        -6
    y_9_2     c15       1
    y_9_3     OBJ       -1
    y_9_3     c4        -1
    y_9_3     c15       1
    y_9_4     OBJ       -8
    y_9_4     c5        -8
    y_9_4     c15       1
    y_9_5     OBJ       -3
    y_9_5     c6        -3
    y_9_5     c15       1
    y_10_1    OBJ       -16
    y_10_1    c2        -16
    y_10_1    c16       1
    y_10_2    OBJ       -14
    y_10_2    c3        -14
    y_10_2    c16       1
    y_10_3    OBJ       -13
    y_10_3    c4        -13
    y_10_3    c16       1
    y_10_4    OBJ       -12
    y_10_4    c5        -12
    y_10_4    c16       1
    y_10_5    OBJ       -22
    y_10_5    c6        -22
    y_10_5    c16       1
    y_11_1    OBJ       -8
    y_11_1    c2        -8
    y_11_1    c17       1
    y_11_2    OBJ       -20
    y_11_2    c3        -20
    y_11_2    c17       1
    y_11_3    OBJ       -15
    y_11_3    c4        -15
    y_11_3    c17       1
    y_11_4    OBJ       -15
    y_11_4    c5        -15
    y_11_4    c17       1
    y_11_5    OBJ       -12
    y_11_5    c6        -12
    y_11_5    c17       1
    y_12_1    OBJ       -11
    y_12_1    c2        -11
    y_12_1    c18       1
    y_12_2    OBJ       -4
    y_12_2    c3        -4
    y_12_2    c18       1
    y_12_3    OBJ       -9
    y_12_3    c4        -9
    y_12_3    c18       1
    y_12_4    OBJ       -15
    y_12_4    c5        -15
    y_12_4    c18       1
    y_12_5    OBJ       -11
    y_12_5    c6        -11
    y_12_5    c18       1
    y_13_1    OBJ       -2
    y_13_1    c2        -2
    y_13_1    c19       1
    y_13_2    OBJ       -19
    y_13_2    c3        -19
    y_13_2    c19       1
    y_13_3    OBJ       -13
    y_13_3    c4        -13
    y_13_3    c19       1
    y_13_4    OBJ       -2
    y_13_4    c5        -2
    y_13_4    c19       1
    y_13_5    OBJ       -9
    y_13_5    c6        -9
    y_13_5    c19       1
    y_14_1    OBJ       -15
    y_14_1    c2        -15
    y_14_1    c20       1
    y_14_2    OBJ       -20
    y_14_2    c3        -20
    y_14_2    c20       1
    y_14_3    OBJ       -17
    y_14_3    c4        -17
    y_14_3    c20       1
    y_14_4    c20       1
    y_14_5    OBJ       -16
    y_14_5    c6        -16
    y_14_5    c20       1
    y_15_1    OBJ       -6
    y_15_1    c2        -6
    y_15_1    c21       1
    y_15_2    OBJ       -1
    y_15_2    c3        -1
    y_15_2    c21       1
    y_15_3    OBJ       -21
    y_15_3    c4        -21
    y_15_3    c21       1
    y_15_4    OBJ       -23
    y_15_4    c5        -23
    y_15_4    c21       1
    y_15_5    OBJ       -1
    y_15_5    c6        -1
    y_15_5    c21       1
    y_16_1    OBJ       -11
    y_16_1    c2        -11
    y_16_1    c22       1
    y_16_2    OBJ       -21
    y_16_2    c3        -21
    y_16_2    c22       1
    y_16_3    OBJ       -2
    y_16_3    c4        -2
    y_16_3    c22       1
    y_16_4    OBJ       -15
    y_16_4    c5        -15
    y_16_4    c22       1
    y_16_5    OBJ       -17
    y_16_5    c6        -17
    y_16_5    c22       1
    y_17_1    OBJ       -17
    y_17_1    c2        -17
    y_17_1    c23       1
    y_17_2    OBJ       -17
    y_17_2    c3        -17
    y_17_2    c23       1
    y_17_3    OBJ       -3
    y_17_3    c4        -3
    y_17_3    c23       1
    y_17_4    OBJ       -13
    y_17_4    c5        -13
    y_17_4    c23       1
    y_17_5    OBJ       -3
    y_17_5    c6        -3
    y_17_5    c23       1
    y_18_1    OBJ       -15
    y_18_1    c2        -15
    y_18_1    c24       1
    y_18_2    OBJ       -5
    y_18_2    c3        -5
    y_18_2    c24       1
    y_18_3    OBJ       -14
    y_18_3    c4        -14
    y_18_3    c24       1
    y_18_4    OBJ       -19
    y_18_4    c5        -19
    y_18_4    c24       1
    y_18_5    OBJ       -7
    y_18_5    c6        -7
    y_18_5    c24       1
    y_19_1    OBJ       -10
    y_19_1    c2        -10
    y_19_1    c25       1
    y_19_2    OBJ       -8
    y_19_2    c3        -8
    y_19_2    c25       1
    y_19_3    c25       1
    y_19_4    OBJ       -8
    y_19_4    c5        -8
    y_19_4    c25       1
    y_19_5    OBJ       -14
    y_19_5    c6        -14
    y_19_5    c25       1
    y_20_1    OBJ       -22
    y_20_1    c2        -22
    y_20_1    c26       1
    y_20_2    OBJ       -24
    y_20_2    c3        -24
    y_20_2    c26       1
    y_20_3    OBJ       -23
    y_20_3    c4        -23
    y_20_3    c26       1
    y_20_4    OBJ       -14
    y_20_4    c5        -14
    y_20_4    c26       1
    y_20_5    OBJ       -15
    y_20_5    c6        -15
    y_20_5    c26       1
    y_21_1    OBJ       -14
    y_21_1    c2        -14
    y_21_1    c27       1
    y_21_2    OBJ       -13
    y_21_2    c3        -13
    y_21_2    c27       1
    y_21_3    OBJ       -8
    y_21_3    c4        -8
    y_21_3    c27       1
    y_21_4    OBJ       -2
    y_21_4    c5        -2
    y_21_4    c27       1
    y_21_5    OBJ       -23
    y_21_5    c6        -23
    y_21_5    c27       1
    y_22_1    OBJ       -21
    y_22_1    c2        -21
    y_22_1    c28       1
    y_22_2    OBJ       -12
    y_22_2    c3        -12
    y_22_2    c28       1
    y_22_3    OBJ       -10
    y_22_3    c4        -10
    y_22_3    c28       1
    y_22_4    OBJ       -12
    y_22_4    c5        -12
    y_22_4    c28       1
    y_22_5    OBJ       -17
    y_22_5    c6        -17
    y_22_5    c28       1
    y_23_1    OBJ       -2
    y_23_1    c2        -2
    y_23_1    c29       1
    y_23_2    OBJ       -10
    y_23_2    c3        -10
    y_23_2    c29       1
    y_23_3    OBJ       -13
    y_23_3    c4        -13
    y_23_3    c29       1
    y_23_4    OBJ       -10
    y_23_4    c5        -10
    y_23_4    c29       1
    y_23_5    OBJ       -9
    y_23_5    c6        -9
    y_23_5    c29       1
    y_24_1    OBJ       -20
    y_24_1    c2        -20
    y_24_1    c30       1
    y_24_2    OBJ       -21
    y_24_2    c3        -21
    y_24_2    c30       1
    y_24_3    OBJ       -9
    y_24_3    c4        -9
    y_24_3    c30       1
    y_24_4    OBJ       -20
    y_24_4    c5        -20
    y_24_4    c30       1
    y_24_5    OBJ       -21
    y_24_5    c6        -21
    y_24_5    c30       1
    y_25_1    OBJ       -23
    y_25_1    c2        -23
    y_25_1    c31       1
    y_25_2    OBJ       -18
    y_25_2    c3        -18
    y_25_2    c31       1
    y_25_3    OBJ       -2
    y_25_3    c4        -2
    y_25_3    c31       1
    y_25_4    OBJ       -9
    y_25_4    c5        -9
    y_25_4    c31       1
    y_25_5    OBJ       -23
    y_25_5    c6        -23
    y_25_5    c31       1
    MARKER    'MARKER'                 'INTEND'
    x_1_0     OBJ       1000
    x_1_0     c2        1
    x_2_0     OBJ       1000
    x_2_0     c3        1
    x_3_0     OBJ       1000
    x_3_0     c4        1
    x_4_0     OBJ       1000
    x_4_0     c5        1
    x_5_0     OBJ       1000
    x_5_0     c6        1
RHS
    RHS1      c1        -5
BOUNDS
 BV BND1      x_1     
 BV BND1      x_2     
 BV BND1      x_3     
 BV BND1      x_4     
 BV BND1      x_5     
 BV BND1      y_1_1   
 BV BND1      y_1_2   
 BV BND1      y_1_3   
 BV BND1      y_1_4   
 BV BND1      y_1_5   
 BV BND1      y_2_1   
 BV BND1      y_2_2   
 BV BND1      y_2_3   
 BV BND1      y_2_4   
 BV BND1      y_2_5   
 BV BND1      y_3_1   
 BV BND1      y_3_2   
 BV BND1      y_3_3   
 BV BND1      y_3_4   
 BV BND1      y_3_5   
 BV BND1      y_4_1   
 BV BND1      y_4_2   
 BV BND1      y_4_3   
 BV BND1      y_4_4   
 BV BND1      y_4_5   
 BV BND1      y_5_1   
 BV BND1      y_5_2   
 BV BND1      y_5_3   
 BV BND1      y_5_4   
 BV BND1      y_5_5   
 BV BND1      y_6_1   
 BV BND1      y_6_2   
 BV BND1      y_6_3   
 BV BND1      y_6_4   
 BV BND1      y_6_5   
 BV BND1      y_7_1   
 BV BND1      y_7_2   
 BV BND1      y_7_3   
 BV BND1      y_7_4   
 BV BND1      y_7_5   
 BV BND1      y_8_1   
 BV BND1      y_8_2   
 BV BND1      y_8_3   
 BV BND1      y_8_4   
 BV BND1      y_8_5   
 BV BND1      y_9_1   
 BV BND1      y_9_2   
 BV BND1      y_9_3   
 BV BND1      y_9_4   
 BV BND1      y_9_5   
 BV BND1      y_10_1  
 BV BND1      y_10_2  
 BV BND1      y_10_3  
 BV BND1      y_10_4  
 BV BND1      y_10_5  
 BV BND1      y_11_1  
 BV BND1      y_11_2  
 BV BND1      y_11_3  
 BV BND1      y_11_4  
 BV BND1      y_11_5  
 BV BND1      y_12_1  
 BV BND1      y_12_2  
 BV BND1      y_12_3  
 BV BND1      y_12_4  
 BV BND1      y_12_5  
 BV BND1      y_13_1  
 BV BND1      y_13_2  
 BV BND1      y_13_3  
 BV BND1      y_13_4  
 BV BND1      y_13_5  
 BV BND1      y_14_1  
 BV BND1      y_14_2  
 BV BND1      y_14_3  
 BV BND1      y_14_4  
 BV BND1      y_14_5  
 BV BND1      y_15_1  
 BV BND1      y_15_2  
 BV BND1      y_15_3  
 BV BND1      y_15_4  
 BV BND1      y_15_5  
 BV BND1      y_16_1  
 BV BND1      y_16_2  
 BV BND1      y_16_3  
 BV BND1      y_16_4  
 BV BND1      y_16_5  
 BV BND1      y_17_1  
 BV BND1      y_17_2  
 BV BND1      y_17_3  
 BV BND1      y_17_4  
 BV BND1      y_17_5  
 BV BND1      y_18_1  
 BV BND1      y_18_2  
 BV BND1      y_18_3  
 BV BND1      y_18_4  
 BV BND1      y_18_5  
 BV BND1      y_19_1  
 BV BND1      y_19_2  
 BV BND1      y_19_3  
 BV BND1      y_19_4  
 BV BND1      y_19_5  
 BV BND1      y_20_1  
 BV BND1      y_20_2  
 BV BND1      y_20_3  
 BV BND1      y_20_4  
 BV BND1      y_20_5  
 BV BND1      y_21_1  
 BV BND1      y_21_2  
 BV BND1      y_21_3  
 BV BND1      y_21_4  
 BV BND1      y_21_5  
 BV BND1      y_22_1  
 BV BND1      y_22_2  
 BV BND1      y_22_3  
 BV BND1      y_22_4  
 BV BND1      y_22_5  
 BV BND1      y_23_1  
 BV BND1      y_23_2  
 BV BND1      y_23_3  
 BV BND1      y_23_4  
 BV BND1      y_23_5  
 BV BND1      y_24_1  
 BV BND1      y_24_2  
 BV BND1      y_24_3  
 BV BND1      y_24_4  
 BV BND1      y_24_5  
 BV BND1      y_25_1  
 BV BND1      y_25_2  
 BV BND1      y_25_3  
 BV BND1      y_25_4  
 BV BND1      y_25_5  
ENDATA
